\Generated by Cardinal Operations

Maximize
   1464.07 x_AB11:20_f + 441.88 x_AB11:20_l + 1467.29 x_AB12:40_f 
   + 505.8 x_AB12:40_l + 856.66 x_AB12:55_f + 279.25 x_AB12:55_l 
   + 1477.78 x_AB13:55_f + 464.67 x_AB13:55_l + 852.25 x_AB16:05_f 
   + 275.1 x_AB16:05_l + 1475.07 x_AB17:05_f + 461.18 x_AB17:05_l 
   + 833.23 x_AB18:00_f + 261.39 x_AB18:00_l + 1466.01 x_AB19:10_f 
   + 433.96 x_AB19:10_l 
Subject To
 capacity_constraint_AB11:20: 1.2 x_AB11:20_f + x_AB11:20_l <= 187
 balance_constraint_AB11:20: 4.92 x_AB11:20_0 + 0.72 x_AB11:20_f 
   + 0.72 x_AB11:20_l <= 179.35
 M_constraint_AB11:20_0: - 10000 y_AB11:20 + x_AB11:20_0 <= 0
 M_constraint_AB11:20_f: - 10000 y_AB11:20 + x_AB11:20_f <= 0
 M_constraint_AB11:20_l: - 10000 y_AB11:20 + x_AB11:20_l <= 0
 scale_constraint_AB11:20_f: 2.05 x_AB11:20_0 - 0.9 x_AB11:20_f >= 0
 scale_constraint_AB11:20_l: x_AB11:20_0 - 0.9 x_AB11:20_l >= 0
 capacity_constraint_AB12:40: 1.2 x_AB12:40_f + x_AB12:40_l <= 187
 balance_constraint_AB12:40: 4.92 x_AB12:40_0 + 0.72 x_AB12:40_f 
   + 0.72 x_AB12:40_l <= 112.36
 M_constraint_AB12:40_0: - 10000 y_AB12:40 + x_AB12:40_0 <= 0
 M_constraint_AB12:40_f: - 10000 y_AB12:40 + x_AB12:40_f <= 0
 M_constraint_AB12:40_l: - 10000 y_AB12:40 + x_AB12:40_l <= 0
 scale_constraint_AB12:40_f: 2.803 x_AB12:40_0 - 0.9 x_AB12:40_f >= 0
 scale_constraint_AB12:40_l: 1.367 x_AB12:40_0 - 0.9 x_AB12:40_l >= 0
 capacity_constraint_AB12:55: 1.2 x_AB12:55_f + x_AB12:55_l <= 187
 balance_constraint_AB12:55: 4.92 x_AB12:55_0 + 0.72 x_AB12:55_f 
   + 0.72 x_AB12:55_l <= 151.72
 M_constraint_AB12:55_0: - 10000 y_AB12:55 + x_AB12:55_0 <= 0
 M_constraint_AB12:55_f: - 10000 y_AB12:55 + x_AB12:55_f <= 0
 M_constraint_AB12:55_l: - 10000 y_AB12:55 + x_AB12:55_l <= 0
 scale_constraint_AB12:55_f: 2.803 x_AB12:55_0 - 0.9 x_AB12:55_f >= 0
 scale_constraint_AB12:55_l: 1.367 x_AB12:55_0 - 0.9 x_AB12:55_l >= 0
 capacity_constraint_AB13:55: 1.2 x_AB13:55_f + x_AB13:55_l <= 187
 balance_constraint_AB13:55: 4.92 x_AB13:55_0 + 0.72 x_AB13:55_f 
   + 0.72 x_AB13:55_l <= 170.64
 M_constraint_AB13:55_0: - 10000 y_AB13:55 + x_AB13:55_0 <= 0
 M_constraint_AB13:55_f: - 10000 y_AB13:55 + x_AB13:55_f <= 0
 M_constraint_AB13:55_l: - 10000 y_AB13:55 + x_AB13:55_l <= 0
 scale_constraint_AB13:55_f: 2.803 x_AB13:55_0 - 0.9 x_AB13:55_f >= 0
 scale_constraint_AB13:55_l: 1.367 x_AB13:55_0 - 0.9 x_AB13:55_l >= 0
 capacity_constraint_AB16:05: 1.2 x_AB16:05_f + x_AB16:05_l <= 187
 balance_constraint_AB16:05: 4.92 x_AB16:05_0 + 0.72 x_AB16:05_f 
   + 0.72 x_AB16:05_l <= 193.22
 M_constraint_AB16:05_0: - 10000 y_AB16:05 + x_AB16:05_0 <= 0
 M_constraint_AB16:05_f: - 10000 y_AB16:05 + x_AB16:05_f <= 0
 M_constraint_AB16:05_l: - 10000 y_AB16:05 + x_AB16:05_l <= 0
 scale_constraint_AB16:05_f: 2.803 x_AB16:05_0 - 0.9 x_AB16:05_f >= 0
 scale_constraint_AB16:05_l: 1.367 x_AB16:05_0 - 0.9 x_AB16:05_l >= 0
 capacity_constraint_AB17:05: 1.2 x_AB17:05_f + x_AB17:05_l <= 187
 balance_constraint_AB17:05: 4.92 x_AB17:05_0 + 0.72 x_AB17:05_f 
   + 0.72 x_AB17:05_l <= 179.5
 M_constraint_AB17:05_0: - 10000 y_AB17:05 + x_AB17:05_0 <= 0
 M_constraint_AB17:05_f: - 10000 y_AB17:05 + x_AB17:05_f <= 0
 M_constraint_AB17:05_l: - 10000 y_AB17:05 + x_AB17:05_l <= 0
 scale_constraint_AB17:05_f: 2.803 x_AB17:05_0 - 0.9 x_AB17:05_f >= 0
 scale_constraint_AB17:05_l: 1.367 x_AB17:05_0 - 0.9 x_AB17:05_l >= 0
 capacity_constraint_AB18:00: 1.2 x_AB18:00_f + x_AB18:00_l <= 187
 balance_constraint_AB18:00: 4.92 x_AB18:00_0 + 0.72 x_AB18:00_f 
   + 0.72 x_AB18:00_l <= 117.78
 M_constraint_AB18:00_0: - 10000 y_AB18:00 + x_AB18:00_0 <= 0
 M_constraint_AB18:00_f: - 10000 y_AB18:00 + x_AB18:00_f <= 0
 M_constraint_AB18:00_l: - 10000 y_AB18:00 + x_AB18:00_l <= 0
 scale_constraint_AB18:00_f: 1.624 x_AB18:00_0 - 0.9 x_AB18:00_f >= 0
 scale_constraint_AB18:00_l: 0.793 x_AB18:00_0 - 0.9 x_AB18:00_l >= 0
 capacity_constraint_AB19:10: 1.2 x_AB19:10_f + x_AB19:10_l <= 187
 balance_constraint_AB19:10: 4.92 x_AB19:10_0 + 0.72 x_AB19:10_f 
   + 0.72 x_AB19:10_l <= 141.78
 M_constraint_AB19:10_0: - 10000 y_AB19:10 + x_AB19:10_0 <= 0
 M_constraint_AB19:10_f: - 10000 y_AB19:10 + x_AB19:10_f <= 0
 M_constraint_AB19:10_l: - 10000 y_AB19:10 + x_AB19:10_l <= 0
 scale_constraint_AB19:10_f: 1.624 x_AB19:10_0 - 0.9 x_AB19:10_f >= 0
 scale_constraint_AB19:10_l: 0.793 x_AB19:10_0 - 0.9 x_AB19:10_l >= 0
 cardinality_constraint: y_AB11:20 + y_AB12:40 + y_AB12:55 + y_AB13:55 
   + y_AB16:05 + y_AB17:05 + y_AB18:00 + y_AB19:10 <= 4
Binaries
 y_AB11:20  y_AB12:40  y_AB12:55  y_AB13:55  y_AB16:05  y_AB17:05  
 y_AB18:00  y_AB19:10  
END

